<number of tasks>
100

<cycle time>
1000

<order strength>
0.601


<task times>
1 27
2 230
3 356
4 494
5 125
6 299
7 223
8 168
9 91
10 96
11 316
12 538
13 559
14 208
15 153
16 248
17 31
18 66
19 193
20 298
21 498
22 312
23 97
24 256
25 323
26 470
27 262
28 131
29 69
30 253
31 158
32 211
33 101
34 533
35 38
36 279
37 78
38 161
39 126
40 56
41 109
42 393
43 563
44 453
45 21
46 555
47 194
48 145
49 506
50 284
51 256
52 188
53 82
54 40
55 62
56 153
57 135
58 235
59 40
60 88
61 115
62 130
63 273
64 358
65 267
66 121
67 145
68 547
69 76
70 42
71 488
72 453
73 488
74 167
75 168
76 165
77 270
78 488
79 239
80 344
81 179
82 303
83 117
84 229
85 113
86 410
87 258
88 292
89 88
90 271
91 109
92 242
93 224
94 160
95 54
96 124
97 182
98 285
99 41
100 40

<precedence relations>
1,5
2,6
2,7
2,8
2,9
3,6
3,7
3,8
3,9
4,6
4,7
4,8
4,9
5,11
6,10
6,11
6,12
6,13
6,14
7,11
7,12
7,13
7,14
8,11
8,12
8,13
8,14
9,11
9,12
9,13
9,14
10,15
11,18
11,19
11,20
11,21
12,16
12,18
12,19
12,20
12,21
13,17
13,18
13,19
13,20
13,21
14,18
14,19
14,20
14,21
15,22
16,23
17,25
18,24
18,26
19,26
20,26
21,26
22,27
23,29
24,28
25,29
26,29
26,30
27,31
28,32
29,33
29,34
29,35
29,36
29,37
30,33
30,34
30,35
30,36
30,37
31,38
32,40
33,39
33,41
33,42
33,43
33,44
34,41
34,42
34,43
34,44
35,41
35,42
35,43
35,44
36,41
36,42
36,43
36,44
37,41
37,42
37,43
37,44
38,45
39,46
40,47
41,48
41,49
41,50
41,51
42,48
42,49
42,50
42,51
43,48
43,49
43,50
43,51
44,48
44,49
44,50
44,51
45,55
46,53
47,52
48,54
48,55
48,56
48,57
49,54
49,55
49,56
49,57
50,54
50,55
50,56
50,57
51,54
51,55
51,56
51,57
52,58
53,60
54,59
54,62
54,63
55,80
56,61
56,62
56,63
57,63
58,64
59,65
60,69
61,67
62,66
62,68
62,69
63,69
63,76
64,76
65,71
66,73
67,70
68,72
68,74
68,75
68,77
68,78
68,79
69,75
69,77
69,78
69,80
70,82
71,85
72,83
73,86
74,84
75,81
75,87
75,98
76,92
77,87
77,88
77,92
78,85
78,86
78,87
78,89
78,96
79,99
80,86
80,88
80,89
81,90
82,91
83,92
84,92
85,93
85,94
87,100
89,94
90,96
91,95
92,98
92,99
93,97
94,98
94,99
95,99
98,100

<end>
